c numero: 54
c nombre: n-45-d-0.5
c densidad: 0.5
p edges 45 517
e 1 2
e 1 6
e 1 7
e 1 8
e 1 11
e 1 12
e 1 13
e 1 15
e 1 19
e 1 20
e 1 22
e 1 25
e 1 27
e 1 29
e 1 33
e 1 36
e 1 39
e 1 40
e 1 42
e 1 44
e 1 45
e 2 5
e 2 8
e 2 9
e 2 10
e 2 11
e 2 15
e 2 17
e 2 18
e 2 19
e 2 20
e 2 21
e 2 22
e 2 23
e 2 24
e 2 28
e 2 29
e 2 30
e 2 34
e 2 35
e 2 37
e 2 38
e 2 39
e 2 40
e 2 42
e 2 43
e 2 44
e 2 45
e 3 4
e 3 7
e 3 8
e 3 11
e 3 13
e 3 14
e 3 16
e 3 17
e 3 18
e 3 19
e 3 20
e 3 22
e 3 27
e 3 28
e 3 31
e 3 32
e 3 33
e 3 37
e 3 38
e 3 39
e 3 40
e 3 44
e 4 6
e 4 7
e 4 11
e 4 13
e 4 14
e 4 17
e 4 20
e 4 21
e 4 22
e 4 23
e 4 26
e 4 27
e 4 29
e 4 30
e 4 32
e 4 33
e 4 35
e 4 37
e 4 39
e 4 41
e 4 44
e 5 6
e 5 7
e 5 8
e 5 9
e 5 10
e 5 11
e 5 12
e 5 13
e 5 14
e 5 15
e 5 17
e 5 22
e 5 23
e 5 24
e 5 25
e 5 26
e 5 28
e 5 30
e 5 31
e 5 35
e 5 37
e 5 38
e 5 40
e 5 42
e 5 45
e 6 7
e 6 11
e 6 17
e 6 18
e 6 22
e 6 25
e 6 27
e 6 32
e 6 33
e 6 35
e 6 37
e 6 40
e 6 41
e 6 42
e 6 44
e 6 45
e 7 9
e 7 10
e 7 11
e 7 12
e 7 15
e 7 18
e 7 19
e 7 21
e 7 22
e 7 27
e 7 31
e 7 32
e 7 37
e 7 39
e 7 40
e 7 41
e 8 11
e 8 12
e 8 13
e 8 14
e 8 15
e 8 16
e 8 18
e 8 21
e 8 24
e 8 25
e 8 28
e 8 30
e 8 31
e 8 32
e 8 36
e 8 37
e 8 40
e 8 41
e 8 42
e 8 43
e 8 44
e 9 11
e 9 14
e 9 15
e 9 16
e 9 19
e 9 20
e 9 23
e 9 25
e 9 28
e 9 30
e 9 35
e 9 36
e 9 38
e 9 39
e 9 43
e 9 45
e 10 11
e 10 14
e 10 16
e 10 17
e 10 19
e 10 21
e 10 22
e 10 24
e 10 26
e 10 27
e 10 29
e 10 32
e 10 34
e 10 36
e 10 38
e 10 39
e 10 40
e 10 41
e 10 43
e 10 44
e 10 45
e 11 14
e 11 16
e 11 17
e 11 19
e 11 21
e 11 23
e 11 24
e 11 25
e 11 26
e 11 27
e 11 28
e 11 31
e 11 32
e 11 33
e 11 34
e 11 36
e 11 38
e 11 39
e 11 42
e 11 43
e 11 44
e 12 13
e 12 14
e 12 19
e 12 22
e 12 23
e 12 24
e 12 26
e 12 27
e 12 28
e 12 29
e 12 30
e 12 31
e 12 32
e 12 33
e 12 38
e 12 39
e 12 40
e 12 45
e 13 16
e 13 17
e 13 20
e 13 21
e 13 27
e 13 29
e 13 31
e 13 33
e 13 35
e 13 36
e 13 37
e 13 39
e 13 40
e 13 42
e 14 15
e 14 16
e 14 17
e 14 18
e 14 20
e 14 21
e 14 23
e 14 25
e 14 26
e 14 28
e 14 29
e 14 35
e 14 36
e 14 39
e 14 45
e 15 16
e 15 18
e 15 19
e 15 20
e 15 22
e 15 23
e 15 25
e 15 27
e 15 28
e 15 30
e 15 33
e 15 35
e 15 36
e 15 39
e 15 40
e 15 42
e 15 44
e 16 17
e 16 19
e 16 20
e 16 23
e 16 24
e 16 26
e 16 28
e 16 29
e 16 31
e 16 36
e 16 37
e 16 38
e 16 39
e 17 18
e 17 19
e 17 23
e 17 24
e 17 26
e 17 30
e 17 34
e 17 35
e 17 37
e 17 38
e 17 40
e 17 42
e 17 43
e 17 44
e 18 20
e 18 24
e 18 25
e 18 26
e 18 27
e 18 29
e 18 31
e 18 34
e 18 36
e 18 37
e 18 41
e 18 42
e 18 44
e 19 20
e 19 22
e 19 23
e 19 24
e 19 25
e 19 27
e 19 28
e 19 32
e 19 33
e 19 35
e 19 37
e 19 41
e 19 42
e 19 44
e 19 45
e 20 21
e 20 22
e 20 23
e 20 24
e 20 25
e 20 26
e 20 27
e 20 28
e 20 29
e 20 36
e 20 37
e 20 41
e 20 42
e 20 43
e 20 45
e 21 22
e 21 23
e 21 24
e 21 26
e 21 31
e 21 35
e 21 37
e 21 40
e 21 42
e 21 45
e 22 23
e 22 25
e 22 27
e 22 28
e 22 30
e 22 31
e 22 32
e 22 33
e 22 36
e 22 37
e 22 38
e 22 39
e 22 40
e 22 42
e 22 43
e 22 45
e 23 24
e 23 26
e 23 28
e 23 31
e 23 32
e 23 38
e 23 40
e 23 44
e 24 25
e 24 26
e 24 27
e 24 28
e 24 29
e 24 30
e 24 32
e 24 35
e 24 38
e 24 41
e 24 42
e 24 43
e 24 44
e 25 28
e 25 30
e 25 32
e 25 34
e 25 36
e 25 38
e 25 39
e 25 40
e 25 41
e 25 43
e 25 44
e 26 32
e 26 33
e 26 35
e 26 36
e 26 38
e 26 39
e 26 40
e 26 42
e 26 44
e 26 45
e 27 28
e 27 29
e 27 30
e 27 32
e 27 37
e 27 39
e 27 42
e 27 43
e 27 44
e 27 45
e 28 30
e 28 33
e 28 34
e 28 35
e 28 36
e 28 38
e 28 39
e 28 42
e 28 44
e 28 45
e 29 30
e 29 35
e 29 36
e 29 37
e 29 38
e 29 39
e 29 40
e 29 42
e 29 44
e 30 31
e 30 33
e 30 34
e 30 36
e 30 37
e 30 38
e 30 40
e 30 41
e 30 44
e 30 45
e 31 33
e 31 34
e 31 37
e 31 40
e 31 42
e 31 43
e 31 44
e 32 33
e 32 34
e 32 36
e 32 37
e 32 38
e 32 39
e 32 43
e 33 34
e 33 35
e 33 36
e 33 37
e 33 38
e 33 39
e 33 42
e 33 45
e 34 35
e 34 37
e 34 38
e 34 39
e 34 45
e 35 39
e 35 40
e 35 41
e 35 42
e 35 43
e 36 37
e 36 38
e 36 40
e 37 42
e 37 43
e 37 44
e 37 45
e 39 40
e 39 41
e 39 42
e 39 43
e 39 44
e 40 45
e 41 42
e 42 44
e 43 44
e 44 45
